50
    1   947   937
    2   781   771
    3   263   253
    4   886   876
    5   685   675
    6   887   877
    7   782   772
    8   715   705
    9   175   165
   10  1001   991
   11   229   219
   12   792   782
   13   264   254
   14   281   271
   15   967   957
   16   643   633
   17   336   326
   18   470   460
   19   877   867
   20   842   832
   21   367   357
   22   158   148
   23    78    68
   24   346   336
   25    63    53
   26   690   680
   27   327   317
   28   569   559
   29   104    94
   30   278   268
   31   224   214
   32   459   449
   33   968   958
   34   189   179
   35   603   593
   36    57    47
   37   948   938
   38   906   896
   39   825   815
   40   961   951
   41   480   470
   42   553   543
   43   555   545
   44   542   532
   45   215   205
   46   699   689
   47   242   232
   48   183   173
   49   648   638
   50   400   390
17306
